10 965
535 8 512 8 469 7 405 15 290 26
535 8 512 8 469 7 405 15 290 26
535 8 512 8 469 7 405 15 290 26
525 7 484 7 368 7 123 9 858 11 679 18
525 7 445 7 357 7 195 9 48 11 872 15 715 22
525 7 502 7 412 7 255 9 80 11 873 18
525 7 479 7 355 7 106 9 927 13
525 7 482 7 365 7 115 9 946 13
525 7 482 7 358 7 165 12
525 7 482 7 358 7 165 12
